InboundTrucks  = 100;
OutboundTrucks = 50;
ReleaseTime    = [202,21,298,30,153,285,66,79,23,150,94,267,164,69,46,216,147,198,35,157,22,82,17,238,147,27,142,99,167,174,295,261,235,150,4,281,268,298,82,132,286,23,50,109,291,273,28,22,45,131,124,248,99,191,98,144,122,136,113,60,276,131,139,69,127,4,18,103,191,297,139,89,14,69,157,244,289,239,198,32,280,215,24,57,80,204,122,186,38,264,52,148,160,199,101,138,44,186,254,240];
UnloadTime     = [9,1,1,1,10,1,1,7,6,2,6,5,3,10,4,9,4,4,3,10,3,2,7,4,1,4,8,10,8,1,6,4,10,10,9,9,5,7,10,9,8,8,5,1,9,7,10,6,8,8,5,10,6,2,9,1,9,3,2,7,7,10,10,6,10,2,2,2,4,2,4,3,6,4,3,5,2,7,5,6,9,6,5,8,7,6,4,8,1,8,2,5,9,8,3,4,4,3,2,4];
LoadTime       = [2,7,3,5,9,6,2,7,9,5,7,7,6,10,9,1,2,4,5,2,8,1,3,4,1,3,9,1,3,3,4,7,6,1,5,1,1,8,6,8,3,2,5,10,10,3,6,2,2,5];
TransferTime   = [| 5,2,3,5,4,1,1,1,5,3,4,5,5,3,3,3,5,5,3,3,5,1,4,3,4,5,1,1,4,4,4,2,4,4,1,5,2,1,4,4,1,2,3,5,2,1,3,5,3,1 | 1,3,5,1,3,2,2,3,1,1,2,1,3,3,3,4,2,4,4,2,4,4,3,1,1,4,3,5,2,3,2,3,3,5,2,1,2,5,1,2,2,5,3,3,2,3,5,3,2,1 | 5,4,3,1,3,2,2,4,1,4,2,5,5,2,3,4,1,5,4,2,2,2,4,5,3,5,4,3,4,3,5,5,5,2,5,2,1,3,1,4,3,2,2,1,4,2,4,5,3,3 | 2,4,2,5,2,5,1,1,3,2,5,1,4,1,3,5,3,1,4,2,4,5,1,5,3,3,2,1,3,2,1,3,4,3,3,5,5,3,3,1,5,1,4,2,1,3,4,4,5,2 | 3,2,3,2,3,3,3,3,3,3,4,1,4,3,1,4,5,5,3,3,1,4,5,3,5,3,5,5,5,3,1,3,2,5,2,5,1,2,5,2,5,1,3,4,3,4,5,3,4,1 | 2,1,3,2,5,4,5,3,4,4,4,5,5,5,5,2,4,4,1,4,3,4,3,2,2,2,1,4,2,3,1,5,5,1,4,2,3,1,5,5,3,1,4,4,2,3,2,4,4,5 | 2,3,2,5,1,5,2,1,3,1,1,2,1,5,2,5,5,4,5,4,1,1,3,2,4,3,4,1,1,4,1,3,3,2,5,3,4,3,1,2,3,1,4,1,5,3,4,1,5,1 | 3,2,4,2,1,2,5,5,2,2,1,4,2,3,1,1,2,1,1,2,3,2,1,2,1,3,4,5,2,5,3,3,5,5,4,1,4,2,3,4,2,1,4,1,5,3,4,3,2,3 | 2,3,4,2,2,2,2,1,3,1,2,5,4,5,1,2,1,2,4,2,3,5,3,2,4,2,3,3,1,3,3,1,1,5,1,1,3,2,4,2,4,2,3,1,1,3,4,2,2,1 | 5,1,3,3,5,2,5,4,2,4,4,3,4,4,4,4,3,3,1,4,3,3,3,1,4,5,3,5,2,5,1,5,5,1,4,5,5,1,5,4,4,3,4,5,2,5,1,4,3,2 | 1,4,2,5,2,3,1,5,4,5,1,3,1,4,1,4,2,1,4,3,4,2,4,3,4,4,5,4,4,1,5,3,1,3,1,1,3,5,4,5,4,1,1,5,3,2,1,1,5,4 | 5,4,5,1,1,3,3,5,1,3,4,4,5,5,2,4,5,4,5,1,1,2,1,5,4,3,5,1,1,3,3,5,1,4,4,5,3,1,3,1,5,5,3,4,2,3,1,2,5,3 | 4,5,1,2,5,2,2,3,4,5,1,4,1,4,3,1,5,5,1,4,5,3,2,1,3,5,5,5,1,1,3,4,1,1,2,2,5,4,1,3,2,2,2,3,3,4,2,2,5,2 | 1,5,2,1,2,4,4,4,1,3,1,3,4,5,4,4,3,5,5,1,2,2,2,3,5,3,4,4,1,1,4,5,1,5,4,5,3,4,2,2,5,1,5,2,2,2,4,2,1,3 | 3,2,1,4,3,5,5,1,4,1,3,2,3,1,4,5,2,1,5,4,2,5,3,3,2,5,3,5,4,1,3,5,1,5,2,2,3,4,2,3,3,4,3,5,3,5,5,2,5,1 | 4,3,1,2,2,5,1,4,2,5,3,2,4,4,3,3,3,2,5,5,1,1,4,4,5,4,2,3,2,1,3,5,2,2,1,4,3,4,4,4,2,1,4,3,1,3,2,1,3,3 | 1,2,1,2,5,4,5,4,4,3,3,2,1,1,1,5,3,4,1,1,5,5,4,3,4,1,5,3,3,4,1,3,3,2,5,5,2,5,1,5,1,4,5,5,5,3,3,4,4,3 | 1,1,5,3,4,5,5,1,5,3,1,1,5,4,5,1,5,5,2,1,2,3,3,1,4,2,1,5,5,4,2,3,2,4,4,4,2,1,5,1,3,5,3,4,1,4,5,2,4,3 | 4,4,1,2,4,1,3,2,3,1,2,3,3,2,5,3,4,1,4,4,1,5,3,3,3,2,1,2,5,5,3,1,2,2,3,5,2,5,5,3,5,2,2,1,3,4,4,2,1,2 | 3,4,5,4,3,4,2,2,5,5,1,3,2,1,4,3,3,4,5,4,1,2,1,1,4,1,2,5,5,5,2,1,3,5,4,5,2,3,3,2,3,3,4,4,5,4,4,3,3,5 | 4,3,4,5,1,2,2,5,5,5,4,4,4,2,1,4,5,3,2,4,5,1,4,3,5,2,5,1,2,2,5,3,4,3,2,4,5,2,2,3,4,2,2,1,1,2,3,1,2,4 | 3,4,4,3,5,1,1,2,4,4,3,5,3,2,2,5,2,4,5,5,3,1,5,1,2,4,3,4,3,2,3,5,4,3,3,5,1,5,1,1,4,3,2,1,4,5,4,3,2,4 | 3,1,1,5,1,4,4,2,5,2,4,2,2,1,5,3,3,1,1,3,4,5,3,3,3,4,3,2,3,1,1,1,1,2,1,3,4,1,3,5,4,4,5,2,2,4,2,1,4,2 | 5,2,1,4,5,4,5,5,2,1,5,3,3,2,4,5,2,5,5,4,5,1,5,5,4,2,4,5,1,2,1,4,3,1,4,1,1,4,3,3,2,2,4,3,4,2,1,2,1,5 | 5,4,2,5,4,1,5,5,1,4,3,3,4,4,4,1,2,1,4,4,1,5,1,1,2,2,4,4,1,1,1,5,5,5,5,1,5,4,3,2,2,3,5,2,5,3,4,3,4,5 | 4,3,4,2,3,2,4,4,4,4,1,5,3,5,5,1,3,4,2,4,5,1,2,3,4,4,4,3,3,5,1,2,1,1,1,1,3,2,2,5,5,2,1,1,2,5,4,2,3,1 | 4,4,3,3,2,3,2,4,2,5,5,5,1,4,5,5,5,2,2,2,1,3,2,2,3,3,4,5,3,5,2,1,4,5,5,4,5,2,5,3,2,1,3,4,4,3,5,4,1,4 | 4,1,3,3,4,5,1,2,2,2,4,5,1,1,5,2,1,1,1,4,2,4,5,4,1,3,1,1,4,1,3,2,1,2,1,5,3,5,4,5,1,1,3,4,1,3,1,4,5,1 | 5,2,5,5,5,5,5,4,3,3,1,5,1,2,3,2,3,4,5,2,5,2,3,1,3,3,5,5,3,2,4,4,2,2,3,2,4,1,1,3,1,5,3,2,5,1,4,1,2,3 | 5,3,1,5,3,5,1,3,4,2,4,5,5,3,2,3,4,4,3,2,4,4,1,1,3,2,3,2,2,1,4,1,4,3,5,3,2,4,1,1,4,4,2,5,5,2,2,4,5,3 | 1,2,3,1,1,2,1,1,1,3,4,2,5,4,2,4,4,2,3,3,3,5,4,4,3,3,5,1,1,5,1,2,3,4,1,2,3,3,4,5,5,2,1,1,2,2,2,4,1,1 | 2,1,2,1,3,4,5,3,2,3,2,5,5,3,3,1,5,1,5,3,3,3,1,4,3,3,1,3,3,3,5,4,4,4,1,1,3,3,1,4,2,2,3,4,2,5,5,3,1,4 | 2,3,2,5,5,3,5,1,1,4,1,2,1,3,3,2,4,3,5,5,5,1,1,4,4,3,4,1,4,5,1,2,2,1,5,5,1,3,1,1,4,1,4,5,5,4,4,2,2,1 | 4,2,2,5,2,4,4,2,5,4,5,3,4,4,4,3,4,5,3,5,2,1,4,5,4,1,1,5,3,5,3,4,5,4,3,2,1,3,1,1,5,3,2,3,4,2,2,5,2,2 | 1,3,1,5,2,2,4,3,3,2,5,1,4,1,2,5,4,3,1,1,4,1,1,5,1,2,1,5,5,1,3,3,3,1,5,3,4,1,3,5,4,5,1,1,1,5,5,4,2,4 | 1,2,2,3,2,2,1,3,5,4,4,4,3,4,1,5,3,4,3,3,3,5,1,5,2,1,4,1,3,4,4,3,5,5,5,5,5,3,1,5,2,3,1,1,5,4,1,4,3,1 | 1,1,5,4,1,2,3,1,3,3,1,2,2,3,3,1,4,2,1,4,3,5,3,2,5,2,1,1,4,4,5,4,1,5,5,5,1,3,4,1,3,1,4,3,4,1,3,1,1,2 | 4,4,1,5,5,4,5,1,1,2,1,1,1,1,2,3,1,1,4,1,5,5,1,5,1,1,3,1,1,1,4,5,4,5,5,3,4,5,1,3,3,5,2,5,5,3,5,1,2,3 | 1,1,2,2,4,3,2,4,5,1,4,2,3,4,1,4,3,4,4,3,5,2,4,1,2,4,5,1,1,3,1,3,4,5,5,5,3,5,4,1,1,1,5,1,4,2,4,4,4,4 | 3,5,1,4,2,2,2,5,2,2,5,1,2,3,4,2,4,4,5,5,5,3,2,2,2,5,5,4,4,3,3,4,2,4,5,5,3,1,3,4,1,5,4,4,1,3,1,5,4,4 | 5,2,5,3,4,5,5,1,1,2,1,2,3,2,2,4,1,3,2,4,5,1,2,2,4,2,4,5,4,2,5,4,1,5,4,2,3,5,5,4,1,2,3,3,3,2,1,3,1,5 | 2,2,1,4,2,3,1,5,2,2,3,4,1,2,5,1,5,3,1,4,2,2,5,5,3,5,2,1,5,4,1,3,4,5,2,5,4,2,2,2,4,3,2,3,3,1,1,1,5,3 | 5,4,5,2,4,4,2,5,5,2,3,4,1,2,5,3,4,4,3,2,4,3,3,1,2,1,5,5,4,5,3,4,2,4,2,3,2,1,2,4,1,3,3,1,5,2,4,5,2,5 | 5,4,5,2,4,2,2,2,2,5,3,1,4,1,3,5,2,4,5,1,3,2,4,5,3,2,5,4,3,1,4,1,4,4,5,3,1,5,1,3,5,3,5,4,3,1,1,1,3,1 | 1,2,2,1,3,2,5,2,2,2,3,5,4,1,5,5,4,2,3,2,1,5,3,1,5,5,5,4,3,5,4,4,5,4,3,3,3,3,2,5,1,5,4,2,1,4,4,5,1,4 | 2,1,2,3,1,3,1,4,3,2,1,3,5,2,5,3,1,1,2,1,4,4,3,3,4,1,2,4,3,3,1,1,2,5,2,3,5,5,3,1,2,4,3,4,4,5,5,3,4,2 | 3,3,3,2,1,5,5,5,1,1,5,1,4,4,4,4,4,2,2,5,5,3,3,3,4,5,2,3,5,4,5,5,4,5,3,4,1,5,2,4,4,1,1,1,5,5,1,2,5,3 | 2,5,5,1,1,3,5,3,4,4,4,5,4,2,3,4,4,1,1,5,4,3,3,5,4,4,2,4,2,1,3,4,3,5,3,4,2,1,2,1,4,4,3,2,3,3,4,2,3,1 | 5,4,5,3,4,2,2,5,3,1,3,4,5,3,1,3,2,5,3,3,3,2,3,1,2,4,2,4,2,2,1,2,5,3,1,1,5,4,3,3,4,4,2,1,2,4,4,4,4,4 | 5,2,1,1,1,2,3,4,1,5,1,5,1,5,1,1,4,1,3,5,5,2,2,2,4,5,1,3,5,2,3,4,1,5,2,2,4,4,3,5,4,5,1,2,4,4,3,3,5,3 | 2,5,4,1,5,5,4,1,2,3,1,1,2,4,2,3,4,4,3,3,5,4,4,1,2,5,1,4,5,5,4,1,2,4,1,2,3,1,4,3,4,2,1,3,3,5,2,4,4,2 | 5,5,1,5,3,4,1,5,3,5,5,1,2,1,4,1,3,1,3,3,3,2,4,5,5,3,5,3,5,2,1,5,5,5,3,3,1,3,5,5,1,5,4,3,3,3,4,4,5,4 | 2,5,2,5,2,2,5,3,3,4,5,5,5,3,5,1,2,3,4,2,4,4,3,3,4,2,2,1,5,1,2,5,1,1,1,5,1,5,1,3,1,5,4,2,5,1,4,2,4,1 | 2,3,3,2,2,4,1,1,3,3,2,5,4,5,3,1,5,4,1,4,5,4,1,3,5,5,2,5,3,3,3,3,5,1,1,3,3,1,4,1,4,5,1,2,1,3,3,5,1,5 | 1,4,5,2,4,5,1,3,3,5,2,3,5,1,3,1,3,5,4,4,2,3,5,3,2,1,5,2,4,4,2,2,5,3,1,5,2,1,1,5,2,3,3,5,4,2,2,1,5,3 | 1,2,1,4,5,5,3,3,5,3,5,4,5,5,3,4,5,5,4,2,2,4,2,3,3,2,1,4,1,5,1,1,4,1,4,2,5,5,3,2,3,5,2,5,1,1,5,3,1,2 | 5,2,1,4,3,3,1,3,5,1,2,1,5,3,1,5,3,5,2,5,2,2,5,5,4,5,3,1,4,2,5,3,5,2,3,2,1,5,1,2,1,1,5,1,4,4,4,4,5,3 | 2,4,3,5,5,5,5,4,3,3,5,1,4,5,5,4,2,3,2,1,4,4,5,1,2,2,4,5,1,5,5,1,2,2,5,2,2,5,5,4,4,1,1,2,4,4,5,5,2,1 | 1,5,1,4,4,5,1,2,4,3,4,3,2,1,3,3,2,5,5,3,4,1,2,2,2,2,2,1,3,1,1,3,5,1,1,3,1,4,5,2,3,2,1,4,3,5,5,3,5,4 | 2,2,4,1,2,5,1,4,3,3,1,3,4,1,1,5,4,5,3,5,3,1,3,3,2,3,5,5,4,4,5,5,1,3,2,4,3,1,1,3,2,5,5,2,4,2,2,4,3,2 | 1,5,5,1,3,1,4,4,5,1,3,4,4,4,3,3,3,3,3,4,5,5,2,1,3,3,2,2,5,2,4,5,2,1,2,2,1,5,3,1,1,1,4,4,5,1,3,1,5,3 | 5,1,2,5,1,1,1,1,5,4,2,5,5,4,5,1,1,5,1,2,2,5,4,4,3,3,1,4,1,4,1,2,3,2,2,4,4,4,2,2,4,5,5,1,3,2,2,4,1,1 | 2,4,1,4,4,5,4,2,1,3,1,2,1,2,4,5,3,5,4,5,5,1,1,5,3,5,1,2,4,5,1,4,2,1,1,1,2,3,4,5,5,3,1,4,5,1,5,2,2,4 | 2,3,1,2,1,2,1,4,4,5,2,4,3,2,2,5,4,5,3,3,1,5,1,3,4,2,1,5,1,1,3,4,3,1,1,1,2,4,4,2,2,5,3,3,1,1,2,2,5,1 | 4,2,1,4,5,4,3,3,1,1,4,5,3,3,3,4,1,5,3,3,1,5,4,4,1,1,4,4,1,1,4,1,4,3,4,5,1,3,3,1,1,3,1,1,2,1,3,2,5,4 | 3,4,5,2,4,4,4,1,4,1,4,1,1,3,3,2,3,1,4,4,5,4,2,1,2,1,4,2,5,2,2,5,4,4,5,2,2,3,3,5,3,2,4,5,3,1,3,3,5,2 | 1,2,5,3,2,4,5,1,5,2,4,3,1,3,1,3,5,4,5,5,2,4,2,5,2,2,3,1,1,2,2,3,1,2,3,1,2,5,4,2,5,2,3,3,2,4,4,5,5,5 | 3,2,3,1,3,1,2,3,4,2,1,4,4,5,3,4,3,3,5,1,4,2,2,1,3,2,2,5,4,1,5,4,4,1,5,2,2,5,2,1,2,3,5,1,5,1,5,2,1,2 | 4,4,2,2,3,5,4,1,5,2,3,5,4,4,5,5,1,2,3,2,1,4,3,1,5,5,1,4,1,1,4,5,4,2,5,4,5,5,5,4,4,2,2,2,1,2,2,1,4,4 | 4,2,3,1,5,1,2,5,5,3,4,4,1,5,3,3,3,2,2,4,1,2,2,5,3,1,2,3,1,3,4,5,2,4,1,2,4,2,1,1,2,4,3,2,3,2,5,3,3,5 | 2,3,2,2,1,2,1,5,2,4,2,3,4,5,3,2,3,3,4,4,3,2,5,4,1,2,5,4,2,4,2,2,2,5,2,4,5,3,5,2,4,1,1,1,5,3,3,5,1,5 | 5,4,3,3,2,5,5,2,1,2,2,2,1,2,1,5,1,1,3,1,2,2,3,2,4,4,5,5,1,1,5,2,1,3,5,3,2,4,1,2,1,2,4,2,3,4,2,1,1,3 | 4,5,2,1,1,4,3,4,5,3,2,5,5,3,4,3,2,4,2,2,5,3,4,3,2,1,5,2,1,5,4,4,1,2,1,5,4,2,4,1,5,1,3,3,5,4,4,2,2,3 | 2,1,4,1,2,1,4,4,1,4,5,4,5,4,5,4,2,4,5,4,4,2,1,1,4,5,2,4,3,2,5,1,3,5,4,5,1,1,5,2,5,2,2,5,2,3,3,5,3,4 | 4,4,5,4,5,2,2,3,4,3,5,2,2,2,5,3,5,2,2,2,1,4,4,2,2,5,5,1,3,2,4,4,5,2,5,4,3,1,1,2,1,5,2,2,3,5,4,4,4,4 | 1,2,5,3,5,5,2,1,3,4,1,1,2,4,3,3,2,4,4,3,4,2,4,1,4,2,2,5,5,2,1,2,5,1,3,4,2,4,2,1,2,5,4,5,4,1,3,1,4,3 | 3,2,3,1,2,1,5,4,3,5,4,5,1,5,2,1,5,2,4,2,2,2,1,1,1,2,4,5,2,2,5,2,3,5,2,4,2,2,2,4,5,4,3,2,4,5,2,1,3,1 | 1,2,2,5,1,1,2,5,2,5,2,5,2,4,2,1,2,1,5,1,3,2,5,3,4,3,5,1,2,2,2,5,2,4,1,4,1,1,4,3,4,2,5,5,3,4,3,5,2,3 | 2,4,4,5,1,3,1,5,5,5,4,1,3,3,3,4,4,5,1,1,4,5,5,2,4,3,1,1,1,2,3,3,3,5,3,4,2,5,2,2,5,1,1,2,2,5,5,4,2,2 | 1,4,3,1,5,5,1,2,5,4,2,2,1,1,4,2,1,4,1,4,1,4,1,3,4,3,2,2,5,1,5,2,3,5,4,1,5,3,3,5,5,1,5,3,3,5,4,5,5,5 | 1,5,1,2,5,2,3,5,2,5,4,5,4,1,3,1,4,4,2,3,2,5,1,2,5,3,1,3,3,2,4,4,2,5,2,5,1,3,3,3,5,5,5,5,4,4,5,2,5,5 | 4,4,3,1,4,1,1,4,2,4,2,5,5,5,3,2,3,3,2,1,2,5,5,1,1,5,4,2,2,5,1,2,2,3,3,4,4,2,3,2,1,5,2,3,1,2,3,5,1,5 | 4,4,3,2,4,2,1,1,5,2,3,5,4,2,1,3,4,5,4,3,3,5,2,5,1,3,4,4,1,4,1,4,5,2,5,1,1,3,3,1,3,4,5,3,1,3,4,2,1,3 | 3,3,2,3,4,1,2,4,3,4,5,1,5,3,3,4,4,3,3,5,5,1,4,5,1,4,3,3,1,3,1,2,3,5,2,1,1,2,1,3,3,4,4,4,5,5,1,5,3,3 | 2,2,2,4,2,1,5,2,3,2,2,2,3,2,5,2,1,3,3,4,1,5,4,2,5,4,2,2,5,5,2,5,2,2,1,1,2,5,1,4,4,2,3,1,5,4,3,4,3,1 | 2,1,3,5,2,4,1,3,3,1,4,2,2,5,5,3,2,3,2,2,3,3,1,3,3,3,3,4,5,3,1,4,4,5,3,2,3,3,2,1,5,5,2,1,1,2,1,4,5,1 | 5,5,4,5,2,5,2,1,3,2,3,2,3,4,5,4,4,1,3,4,1,4,3,4,4,2,4,3,1,5,1,2,2,3,3,2,4,4,3,1,1,4,4,3,1,5,2,3,2,1 | 3,5,1,4,2,5,2,4,2,4,1,4,2,1,2,4,1,2,2,3,5,5,3,1,3,4,1,4,4,4,4,3,5,2,5,5,3,5,2,3,4,2,2,5,5,4,1,3,3,5 | 3,5,4,4,4,4,2,4,5,1,2,1,5,3,3,1,1,5,3,5,1,4,2,3,4,3,5,4,1,5,2,2,5,3,4,4,4,2,1,4,4,5,3,3,4,5,2,3,4,1 | 2,5,5,1,1,3,4,3,3,5,5,3,1,2,4,1,3,4,5,5,2,1,4,3,1,4,5,4,1,5,5,5,4,3,3,1,4,1,1,5,4,4,4,1,4,4,4,4,2,2 | 4,1,3,4,1,3,1,2,2,2,3,3,2,4,1,4,5,5,2,5,3,3,2,2,2,5,5,4,5,4,4,3,5,3,3,2,4,5,4,4,4,1,1,3,3,1,5,5,3,4 | 3,2,1,5,5,1,1,5,2,5,5,4,2,4,1,2,5,4,1,2,3,5,2,2,5,2,5,5,5,1,3,1,2,1,5,3,5,1,1,3,3,1,5,5,3,5,4,1,1,1 | 2,1,5,5,1,4,3,3,4,5,3,5,3,2,3,4,4,1,2,4,4,4,5,4,3,3,5,5,1,1,2,2,3,2,2,5,3,1,2,2,3,1,4,1,1,2,5,2,2,5 | 2,1,3,2,3,2,1,3,5,5,4,1,4,1,4,4,2,2,5,4,2,4,1,5,1,3,2,4,1,5,5,1,4,5,2,1,5,4,5,4,1,2,1,4,4,2,3,3,5,1 | 1,3,2,2,3,1,4,2,5,3,3,5,2,1,2,4,3,2,5,5,3,3,2,4,1,3,5,3,1,4,2,1,5,2,5,1,3,3,2,2,3,1,5,2,1,2,3,5,3,5 | 1,2,5,1,1,5,5,5,2,1,1,1,5,1,3,2,1,3,2,1,3,1,2,5,5,2,5,3,4,5,1,2,5,5,1,5,3,5,2,1,3,2,1,5,1,1,2,1,5,5 | 2,4,5,2,4,3,4,1,5,1,1,4,2,2,2,5,3,5,4,1,3,4,5,1,5,4,4,5,4,4,3,2,2,2,3,1,3,2,2,2,5,1,4,1,3,1,1,4,3,3 | 1,3,5,1,2,5,5,3,4,5,3,3,5,5,5,1,2,4,2,4,5,5,3,5,3,3,2,3,3,4,4,3,1,4,3,2,4,2,5,4,1,5,1,3,5,3,5,1,3,5 | 5,3,5,3,1,2,2,5,5,1,1,4,4,1,5,2,5,3,1,1,3,2,4,3,5,2,2,3,4,5,3,2,2,2,1,2,5,3,3,3,3,5,1,2,5,3,5,1,2,4 | 2,5,1,5,5,3,3,2,1,1,4,1,5,3,5,2,3,1,5,2,5,2,3,3,1,1,1,5,1,5,3,5,3,5,3,2,4,1,4,3,5,2,3,1,4,1,2,5,2,1 |];
